clingo version 4.2.1
Reading from EncodingsClean/SokobanSplitEncoding.lp ...
Solving...
SATISFIABLE

Models       : 1+    
Calls        : 1
Time         : 312.157s (Solving: 309.63s 1st Model: 309.63s Unsat: 0.00s)
CPU Time     : 311.690s

Choices      : 4223830
Conflicts    : 2101839 (Analyzed: 2101839)
Restarts     : 22     (Average: 95538.14 Last: 605675)
Model-Level  : 15.0  
Problems     : 1      (Average Length: 1.00 Splits: 0)
Lemmas       : 2101839 (Deleted: 2016687)
  Binary     : 20214  (Ratio:   0.96%)
  Ternary    : 33433  (Ratio:   1.59%)
  Conflict   : 2101839 (Average Length:  268.4 Ratio: 100.00%) 
  Loop       : 0      (Average Length:    0.0 Ratio:   0.00%) 
  Other      : 0      (Average Length:    0.0 Ratio:   0.00%) 

Atoms        : 13382 
Rules        : 1291588 (1: 1291510 2: 52 3: 26)
Bodies       : 1278038
Equivalences : 8758   (Atom=Atom: 268 Body=Body: 572 Other: 7918)
Tight        : No     (SCCs: 130 Non-Hcfs: 0 Nodes: 23723 Gammas: 0)
Variables    : 24903  (Eliminated:    0 Frozen: 23392)
Constraints  : 146925 (Binary: 73.4% Ternary:  4.4% Other: 22.2%)

